HFSDDW
15	6	3
0	98	1	48	2	76
0	29	1	71	2	72
0	53	1	38	2	23
0	76	1	59	2	66
0	81	1	9	2	72
0	41	1	91	2	91
0	90	1	42	2	55
0	93	1	91	2	18
0	31	1	82	2	45
0	44	1	47	2	10
0	92	1	22	2	7
0	77	1	19	2	97
0	82	1	82	2	38
0	58	1	71	2	34
0	41	1	61	2	27
LBCmax: 536
RELDUE
-1	302	3	1
-1	52	9	2
-1	450	8	4
-1	261	6	1
-1	123	9	7
-1	95	6	1
-1	395	5	3
-1	420	7	2
-1	38	5	3
-1	477	9	6
-1	0	6	5
-1	250	8	2
-1	263	8	1
-1	474	4	9
-1	423	8	2
DDW
287	317
50	54
410	490
248	274
118	128
88	102
375	415
407	433
35	41
429	525
0	0
245	255
260	266
431	517
389	457
